32	4
20	19	14	17
0	0	0	0	0	2	2	3
7	5	0	0	4	3	4	5	7
8	0	4	0	1	2	4	7
1	0	19	0	1	1	6
10	0	1	10	0	1	6
1	0	0	1	1	1	8
4	0	0	1	1	1	8
10	0	0	1	6	1	9
10	1	7	0	0	2	10	11
2	14	0	2	0	2	12	13
8	1	0	0	16	2	12	13
3	0	0	6	17	3	14	15	16
3	0	0	6	2	3	14	15	16
6	1	1	0	0	3	17	18	19
9	5	1	0	0	2	18	19
7	1	8	0	0	2	17	19
3	8	1	0	0	2	20	22
2	0	4	6	0	2	20	22
8	2	3	0	0	1	21
3	0	0	1	3	2	23	25
6	4	9	0	0	2	23	25
5	11	1	0	0	1	23
5	1	0	2	0	1	24
7	0	1	0	2	2	26	27
4	0	0	7	4	2	26	28
6	0	0	5	4	2	29	31
6	13	0	1	0	1	28
6	0	1	0	1	2	30	31
2	1	0	3	0	1	30
3	7	10	0	0	1	32
4	0	0	1	1	1	32
0	0	0	0	0	0
